
******************************************************************************
This program contains Ipopt, a library for large-scale nonlinear optimization.
 Ipopt is released as open source code under the Eclipse Public License (EPL).
         For more information visit http://projects.coin-or.org/Ipopt
******************************************************************************

This is Ipopt version 3.12.6, running with linear solver ma57.

Number of nonzeros in equality constraint Jacobian...:        0
Number of nonzeros in inequality constraint Jacobian.:     6000
Number of nonzeros in Lagrangian Hessian.............:     2002

Total number of variables............................:     2002
                     variables with only lower bounds:        0
                variables with lower and upper bounds:        0
                     variables with only upper bounds:        0
Total number of equality constraints.................:        0
Total number of inequality constraints...............:     2000
        inequality constraints with only lower bounds:     2000
   inequality constraints with lower and upper bounds:        0
        inequality constraints with only upper bounds:        0

iter    objective    inf_pr   inf_du lg(mu)  ||d||  lg(rg) alpha_du alpha_pr  ls
   0  5.0553197e+02 0.00e+00 1.43e+00  -1.0 0.00e+00    -  0.00e+00 0.00e+00   0
   1  7.5685074e+01 3.65e-03 3.95e+00  -1.0 1.88e+00    -  1.00e+00 6.25e-01f  1
   2  1.8958866e+01 1.56e-03 1.46e+01  -1.0 6.82e-01    -  1.00e+00 5.72e-01h  1
   3  8.9270253e+00 6.57e-04 3.63e+01  -1.0 4.04e-01    -  1.00e+00 5.76e-01h  1
   4  8.0477831e+00 2.79e-04 8.71e+01  -1.0 2.92e-01    -  1.00e+00 5.75e-01h  1
   5  9.2282140e+00 1.14e-04 2.00e+02  -1.0 2.45e-01    -  1.00e+00 5.89e-01h  1
   6  1.1531710e+01 4.85e-05 5.02e+02  -1.0 2.28e-01    -  1.00e+00 5.76e-01h  1
   7  1.5319835e+01 2.00e-05 1.17e+03  -1.0 2.31e-01    -  1.00e+00 5.87e-01h  1
   8  2.1193641e+01 8.45e-06 2.91e+03  -1.0 2.33e-01    -  1.00e+00 5.79e-01h  1
   9  3.0550141e+01 3.51e-06 6.91e+03  -1.0 2.38e-01    -  1.00e+00 5.85e-01h  1
iter    objective    inf_pr   inf_du lg(mu)  ||d||  lg(rg) alpha_du alpha_pr  ls
  10  4.6127717e+01 1.56e-06 2.02e+04  -1.0 2.58e-01    -  1.00e+00 5.58e-01h  1
  11  1.1222117e+02 0.00e+00 1.00e-06  -1.0 2.49e-01    -  1.00e+00 1.00e+00h  1
  12  3.5784840e+01 0.00e+00 2.18e-11  -5.7 7.29e-01    -  1.00e+00 1.00e+00f  1
  13  1.5121210e+01 0.00e+00 2.18e-11  -5.7 3.64e-01    -  1.00e+00 1.00e+00f  1
  14  9.2524422e+00 0.00e+00 2.18e-11  -5.7 1.80e-01    -  1.00e+00 1.00e+00f  1
  15  7.5569166e+00 0.00e+00 2.00e-11  -5.7 8.60e-02    -  1.00e+00 1.00e+00f  1
  16  7.1481534e+00 0.00e+00 3.62e-12  -8.6 3.62e-02    -  1.00e+00 1.00e+00f  1
  17  7.0983288e+00 0.00e+00 3.38e-12  -8.6 9.76e-03    -  1.00e+00 1.00e+00f  1
  18  7.0967879e+00 0.00e+00 3.54e-12  -8.6 8.52e-04    -  1.00e+00 1.00e+00f  1

Number of Iterations....: 18

                                   (scaled)                 (unscaled)
Objective...............:   7.0967878709106502e+00    7.0967878709106502e+00
Dual infeasibility......:   3.5396685582611553e-12    3.5396685582611553e-12
Constraint violation....:   0.0000000000000000e+00    0.0000000000000000e+00
Complementarity.........:   1.3627437929784759e-07    1.3627437929784759e-07
Overall NLP error.......:   2.2179462621326516e-09    1.3627437929784759e-07


Number of objective function evaluations             = 19
Number of objective gradient evaluations             = 19
Number of equality constraint evaluations            = 0
Number of inequality constraint evaluations          = 19
Number of equality constraint Jacobian evaluations   = 0
Number of inequality constraint Jacobian evaluations = 19
Number of Lagrangian Hessian evaluations             = 18
Total CPU secs in IPOPT (w/o function evaluations)   =      0.057
Total CPU secs in NLP function evaluations           =      0.010

EXIT: Optimal Solution Found.

************************ CUTEst statistics ************************


 Package used            :  IPOPT
 Problem                 :  LISWET1   
 # variables             =            2002
 # constraints           =            2000
 # objective functions   =        0.3900000E+02
 # objective gradients   =        0.2000000E+02
 # objective Hessians    =        0.1900000E+02
 # Hessian-vector prdct  =        0.0000000E+00
 # constraints functions =        0.4000000E+02
 # constraints gradients =        0.2100000E+02
 # constraints Hessians  =        0.1900000E+02
 Exit code               =               0
 Final f                 =   0.7096788E+01
 Set up time             =            0.04 seconds
 Solve time              =            0.21 seconds


******************************************************************

System Time =       0.0520000011 s.
